NAME 
ROWS
 N  OBJ
 L  R0      
 L  R1      
 E  R2      
 E  R3      
 E  R4      
 E  R5      
 E  R6      
COLUMNS
    MARKER    'MARKER'                 'INTORG'
    I0(5)     OBJ       -136
    I0(5)     R0        90
    I0(5)     R1        40
    I0(5)     R2        7
    I0(5)     R3        5
    I0(5)     R6        1
    I1(5)     OBJ       -11
    I1(5)     R0        23
    I1(5)     R1        147
    I1(5)     R2        1
    I1(5)     R3        17
    I1(5)     R6        1
    MARKER    'MARKER'                 'INTEND'
    C2(5)     OBJ       -8
    C2(5)     R0        -4
    C2(5)     R1        -5
    C2(5)     R3        7
    C2(5)     R4        8
    C2(5)     R5        2
    C3(5)     OBJ       -7
    C3(5)     R0        -10
    C3(5)     R1        4
    C3(5)     R3        13
    C3(5)     R4        11
    C3(5)     R5        7
    C4(5)     OBJ       -2
    C4(5)     R0        9
    C4(5)     R1        7
    C4(5)     R2        12
    C4(5)     R4        10
    C4(5)     R5        4
    C5(1)     R2        1
    C6(1)     R3        1
    C7(1)     R4        1
    C8(1)     R5        1
    C9(1)     R6        1
RHS
    RHS1      R0        -35
    RHS1      R1        -43.75
    RHS1      R2        55
    RHS1      R3        95
    RHS1      R4        70
    RHS1      R5        61
BOUNDS
 UP BND1      I0(5)     1
 UP BND1      I1(5)     1
ENDATA
